c
c This is glucose 2.1 --  based on MiniSAT (Many thanks to MiniSAT team)
c
c WARNING: for repeatability, setting FPU to use double precision
c ========================================[ Problem Statistics ]===========================================
c |                                                                                                       |
c |  Number of variables:        383542                                                                   |
c |  Number of clauses:          925003                                                                   |
c |  Parse time:                   0.27 s                                                                 |
c |                                                                                                       |
c ========================================[ MAGIC CONSTANTS ]==============================================
c | Constants are supposed to work well together :-)                                                      |
c | however, if you find better choices, please let us known...                                           |
c |-------------------------------------------------------------------------------------------------------|
c |                                |                                |                                     |
c | - Restarts:                    | - Reduce Clause DB:            | - Minimize Asserting:               |
c |   * LBD Queue    :     50      |   * First     :   4000         |    * size <  30                     |
c |   * Trail  Queue :   5000      |   * Inc       :    300         |    * lbd  <   6                     |
c |   * K            :   0.80      |   * Special   :   1000         |                                     |
c |   * R            :   1.40      |   * Protected :  (lbd)< 30     |                                     |
c |                                |                                |                                     |
c ==================================[ Search Statistics (every  10000 conflicts) ]=========================
c |                                                                                                       |
c |          RESTARTS           |          ORIGINAL         |              LEARNT              | Progress |
c |       NB   Blocked  Avg Cfc |    Vars  Clauses Literals |   Red   Learnts    LBD2  Removed |          |
c =========================================================================================================
c |       64         0      156 |  217476   907603  2033282 |     1     7999      184     2000 | 43.298 % |
c |      130         0      153 |  217476   907603  2033282 |     3     6987      353    13012 | 43.298 % |
c |      204         0      147 |  217476   907603  2033282 |     3    16987      564    13012 | 43.298 % |
c |      289         0      138 |  217476   907603  2033282 |     4    17734      762    22265 | 43.298 % |
c |      366         0      136 |  217476   907603  2033282 |     5    15916      954    34083 | 43.298 % |
c |      445         0      134 |  217476   907603  2033282 |     5    25916     1130    34083 | 43.298 % |
c |      523         0      133 |  217476   907603  2033282 |     6    21503     1317    48496 | 43.298 % |
c |      619         0      129 |  217476   907603  2033282 |     6    31503     1486    48496 | 43.298 % |
c |      720         0      125 |  217476   907603  2033282 |     7    24502     1656    65497 | 43.298 % |
c |      821         0      121 |  217476   907603  2033282 |     7    34502     1838    65497 | 43.298 % |
c last restart ## conflicts  :  29 334 
c =========================================================================================================
c restarts              : 848 (121 conflicts in avg)
c blocked restarts      : 0 (multiple: 0) 
c last block at restart : 0
c nb ReduceDB           : 7
c nb removed Clauses    : 65497
c nb learnts DL2        : 1874
c nb learnts size 2     : 1122
c nb learnts size 1     : 0
c conflicts             : 103027         (857 /sec)
c decisions             : 1016674        (0.00 % random) (8460 /sec)
c propagations          : 600456823      (4996499 /sec)
c conflict literals     : 6210597        (15.32 % deleted)
c nb reduced Clauses    : 2934
c CPU time              : 120.176 s
s SATISFIABLE
